p cnf 416 1071
1 0
2 0
3 0
4 0
5 0
6 0
7 0
8 0
9 0
10 0
-11 0
-12 0
-13 0
-14 0
-15 0
-16 0
-17 0
-18 0
-19 0
-20 0
1 -21 0
-1 21 0
2 -22 0
-2 22 0
3 -23 0
-3 23 0
4 -24 0
-4 24 0
5 -25 0
-5 25 0
6 -26 0
-6 26 0
7 -27 0
-7 27 0
8 -28 0
-8 28 0
9 -29 0
-9 29 0
10 -30 0
-10 30 0
31 32 0
33 32 0
34 32 0
35 32 0
36 32 0
37 32 0
38 32 0
39 32 0
40 32 0
-41 0
-11 32 -42 0
11 -32 -42 0
42 -32 -11 0
11 32 42 0
-42 0
33 43 0
34 43 0
35 43 0
36 43 0
37 43 0
38 43 0
39 43 0
40 43 0
-44 0
-45 43 -46 0
45 -43 -46 0
46 -43 -45 0
45 43 46 0
-46 0
34 47 0
35 47 0
36 47 0
37 47 0
38 47 0
39 47 0
40 47 0
-48 0
-49 47 -50 0
49 -47 -50 0
50 -47 -49 0
49 47 50 0
-50 0
35 51 0
36 51 0
37 51 0
38 51 0
39 51 0
40 51 0
-52 0
-53 51 -54 0
53 -51 -54 0
54 -51 -53 0
53 51 54 0
-54 0
36 55 0
37 55 0
38 55 0
39 55 0
40 55 0
-56 0
-57 55 -58 0
57 -55 -58 0
58 -55 -57 0
57 55 58 0
-58 0
-59 55 -60 0
59 -55 -60 0
60 -55 -59 0
59 55 60 0
-60 0
-61 55 -62 0
61 -55 -62 0
62 -55 -61 0
61 55 62 0
-62 0
-63 55 -64 0
63 -55 -64 0
64 -55 -63 0
63 55 64 0
-64 0
-65 55 -66 0
65 -55 -66 0
66 -55 -65 0
65 55 66 0
-66 0
67 68 0
69 68 0
70 68 0
71 68 0
72 68 0
73 68 0
74 68 0
75 68 0
76 68 0
77 68 0
-78 0
-12 68 -79 0
12 -68 -79 0
79 -68 -12 0
12 68 79 0
-79 0
69 80 0
70 80 0
71 80 0
72 80 0
73 80 0
74 80 0
75 80 0
76 80 0
77 80 0
-81 0
-82 80 -83 0
82 -80 -83 0
83 -80 -82 0
82 80 83 0
-83 0
70 84 0
71 84 0
72 84 0
73 84 0
74 84 0
75 84 0
76 84 0
77 84 0
-85 0
-86 84 -87 0
86 -84 -87 0
87 -84 -86 0
86 84 87 0
-87 0
71 88 0
72 88 0
73 88 0
74 88 0
75 88 0
76 88 0
77 88 0
-89 0
-90 88 -91 0
90 -88 -91 0
91 -88 -90 0
90 88 91 0
-91 0
72 92 0
73 92 0
74 92 0
75 92 0
76 92 0
77 92 0
-93 0
-94 92 -95 0
94 -92 -95 0
95 -92 -94 0
94 92 95 0
-95 0
73 96 0
74 96 0
75 96 0
76 96 0
77 96 0
-97 0
-98 96 -99 0
98 -96 -99 0
99 -96 -98 0
98 96 99 0
-99 0
74 100 0
75 100 0
76 100 0
77 100 0
-101 0
-102 100 -103 0
102 -100 -103 0
103 -100 -102 0
102 100 103 0
-103 0
-104 100 -105 0
104 -100 -105 0
105 -100 -104 0
104 100 105 0
-105 0
-106 100 -107 0
106 -100 -107 0
107 -100 -106 0
106 100 107 0
-107 0
-108 100 -109 0
108 -100 -109 0
109 -100 -108 0
108 100 109 0
-109 0
110 111 0
112 111 0
113 111 0
114 111 0
115 111 0
116 111 0
117 111 0
118 111 0
119 111 0
120 111 0
121 111 0
-122 0
-13 111 -123 0
13 -111 -123 0
123 -111 -13 0
13 111 123 0
-123 0
110 124 0
112 124 0
113 124 0
115 124 0
116 124 0
117 124 0
118 124 0
119 124 0
120 124 0
121 124 0
-125 0
-126 124 -127 0
126 -124 -127 0
127 -124 -126 0
126 124 127 0
-127 0
110 128 0
112 128 0
113 128 0
116 128 0
117 128 0
118 128 0
119 128 0
120 128 0
121 128 0
-129 0
-130 128 -131 0
130 -128 -131 0
131 -128 -130 0
130 128 131 0
-131 0
112 132 0
113 132 0
116 132 0
117 132 0
118 132 0
119 132 0
120 132 0
121 132 0
-133 0
-134 132 -135 0
134 -132 -135 0
135 -132 -134 0
134 132 135 0
-135 0
112 136 0
113 136 0
117 136 0
118 136 0
119 136 0
120 136 0
121 136 0
-137 0
-138 136 -139 0
138 -136 -139 0
139 -136 -138 0
138 136 139 0
-139 0
112 140 0
113 140 0
118 140 0
119 140 0
120 140 0
121 140 0
-141 0
-142 140 -143 0
142 -140 -143 0
143 -140 -142 0
142 140 143 0
-143 0
-144 140 -145 0
144 -140 -145 0
145 -140 -144 0
144 140 145 0
-145 0
-146 140 -147 0
146 -140 -147 0
147 -140 -146 0
146 140 147 0
-147 0
-148 140 -149 0
148 -140 -149 0
149 -140 -148 0
148 140 149 0
-149 0
-150 140 -151 0
150 -140 -151 0
151 -140 -150 0
150 140 151 0
-151 0
-152 140 -153 0
152 -140 -153 0
153 -140 -152 0
152 140 153 0
-153 0
154 155 0
156 155 0
157 155 0
158 155 0
159 155 0
160 155 0
161 155 0
162 155 0
163 155 0
-164 0
-14 155 -165 0
14 -155 -165 0
165 -155 -14 0
14 155 165 0
-165 0
156 166 0
157 166 0
158 166 0
159 166 0
160 166 0
161 166 0
162 166 0
163 166 0
-167 0
-168 166 -169 0
168 -166 -169 0
169 -166 -168 0
168 166 169 0
-169 0
157 170 0
158 170 0
159 170 0
160 170 0
161 170 0
162 170 0
163 170 0
-171 0
-172 170 -173 0
172 -170 -173 0
173 -170 -172 0
172 170 173 0
-173 0
158 174 0
159 174 0
160 174 0
161 174 0
162 174 0
163 174 0
-175 0
-176 174 -177 0
176 -174 -177 0
177 -174 -176 0
176 174 177 0
-177 0
159 178 0
160 178 0
161 178 0
162 178 0
163 178 0
-179 0
-180 178 -181 0
180 -178 -181 0
181 -178 -180 0
180 178 181 0
-181 0
-182 178 -183 0
182 -178 -183 0
183 -178 -182 0
182 178 183 0
-183 0
-184 178 -185 0
184 -178 -185 0
185 -178 -184 0
184 178 185 0
-185 0
-186 178 -187 0
186 -178 -187 0
187 -178 -186 0
186 178 187 0
-187 0
-188 178 -189 0
188 -178 -189 0
189 -178 -188 0
188 178 189 0
-189 0
190 191 0
192 191 0
193 191 0
194 191 0
195 191 0
196 191 0
-197 0
-15 191 -198 0
15 -191 -198 0
198 -191 -15 0
15 191 198 0
-198 0
192 199 0
193 199 0
194 199 0
195 199 0
196 199 0
-200 0
-201 199 -202 0
201 -199 -202 0
202 -199 -201 0
201 199 202 0
-202 0
-203 199 -204 0
203 -199 -204 0
204 -199 -203 0
203 199 204 0
-204 0
-205 199 -206 0
205 -199 -206 0
206 -199 -205 0
205 199 206 0
-206 0
-207 199 -208 0
207 -199 -208 0
208 -199 -207 0
207 199 208 0
-208 0
-209 199 -210 0
209 -199 -210 0
210 -199 -209 0
209 199 210 0
-210 0
211 212 0
213 212 0
214 212 0
215 212 0
216 212 0
217 212 0
218 212 0
219 212 0
220 212 0
221 212 0
222 212 0
223 212 0
-224 0
-16 212 -225 0
16 -212 -225 0
225 -212 -16 0
16 212 225 0
-225 0
211 226 0
213 226 0
214 226 0
215 226 0
216 226 0
217 226 0
218 226 0
220 226 0
221 226 0
222 226 0
223 226 0
-227 0
-228 226 -229 0
228 -226 -229 0
229 -226 -228 0
228 226 229 0
-229 0
213 230 0
214 230 0
215 230 0
216 230 0
217 230 0
218 230 0
220 230 0
221 230 0
222 230 0
223 230 0
-231 0
-232 230 -233 0
232 -230 -233 0
233 -230 -232 0
232 230 233 0
-233 0
213 234 0
214 234 0
215 234 0
216 234 0
217 234 0
218 234 0
221 234 0
222 234 0
223 234 0
-235 0
-236 234 -237 0
236 -234 -237 0
237 -234 -236 0
236 234 237 0
-237 0
214 238 0
215 238 0
216 238 0
217 238 0
218 238 0
221 238 0
222 238 0
223 238 0
-239 0
-240 238 -241 0
240 -238 -241 0
241 -238 -240 0
240 238 241 0
-241 0
214 242 0
215 242 0
216 242 0
217 242 0
218 242 0
222 242 0
223 242 0
-243 0
-244 242 -245 0
244 -242 -245 0
245 -242 -244 0
244 242 245 0
-245 0
215 246 0
216 246 0
217 246 0
218 246 0
222 246 0
223 246 0
-247 0
-248 246 -249 0
248 -246 -249 0
249 -246 -248 0
248 246 249 0
-249 0
-250 246 -251 0
250 -246 -251 0
251 -246 -250 0
250 246 251 0
-251 0
-252 246 -253 0
252 -246 -253 0
253 -246 -252 0
252 246 253 0
-253 0
-254 246 -255 0
254 -246 -255 0
255 -246 -254 0
254 246 255 0
-255 0
-256 246 -257 0
256 -246 -257 0
257 -246 -256 0
256 246 257 0
-257 0
-258 246 -259 0
258 -246 -259 0
259 -246 -258 0
258 246 259 0
-259 0
260 261 0
262 261 0
263 261 0
264 261 0
265 261 0
266 261 0
267 261 0
-268 0
-17 261 -269 0
17 -261 -269 0
269 -261 -17 0
17 261 269 0
-269 0
262 270 0
263 270 0
264 270 0
265 270 0
266 270 0
267 270 0
-271 0
-272 270 -273 0
272 -270 -273 0
273 -270 -272 0
272 270 273 0
-273 0
263 274 0
264 274 0
265 274 0
266 274 0
267 274 0
-275 0
-276 274 -277 0
276 -274 -277 0
277 -274 -276 0
276 274 277 0
-277 0
264 278 0
265 278 0
266 278 0
267 278 0
-279 0
-280 278 -281 0
280 -278 -281 0
281 -278 -280 0
280 278 281 0
-281 0
265 282 0
266 282 0
267 282 0
-267 -265 -266 -282 0
-283 282 -284 0
283 -282 -284 0
284 -282 -283 0
283 282 284 0
-284 0
266 285 0
267 285 0
-267 -266 -285 0
-286 285 -287 0
286 -285 -287 0
287 -285 -286 0
286 285 287 0
-287 0
-288 285 -289 0
288 -285 -289 0
289 -285 -288 0
288 285 289 0
-289 0
290 291 0
292 291 0
293 291 0
294 291 0
295 291 0
296 291 0
297 291 0
298 291 0
299 291 0
300 291 0
301 291 0
302 291 0
-303 0
-18 291 -304 0
18 -291 -304 0
304 -291 -18 0
18 291 304 0
-304 0
292 305 0
293 305 0
294 305 0
295 305 0
296 305 0
297 305 0
298 305 0
299 305 0
300 305 0
301 305 0
302 305 0
-306 0
-307 305 -308 0
307 -305 -308 0
308 -305 -307 0
307 305 308 0
-308 0
293 309 0
294 309 0
295 309 0
296 309 0
297 309 0
298 309 0
299 309 0
300 309 0
301 309 0
302 309 0
-310 0
-311 309 -312 0
311 -309 -312 0
312 -309 -311 0
311 309 312 0
-312 0
293 313 0
294 313 0
295 313 0
296 313 0
297 313 0
298 313 0
300 313 0
301 313 0
302 313 0
-314 0
-315 313 -316 0
315 -313 -316 0
316 -313 -315 0
315 313 316 0
-316 0
294 317 0
295 317 0
296 317 0
297 317 0
298 317 0
300 317 0
301 317 0
302 317 0
-318 0
-319 317 -320 0
319 -317 -320 0
320 -317 -319 0
319 317 320 0
-320 0
295 321 0
296 321 0
297 321 0
298 321 0
300 321 0
301 321 0
302 321 0
-322 0
-323 321 -324 0
323 -321 -324 0
324 -321 -323 0
323 321 324 0
-324 0
296 325 0
297 325 0
298 325 0
300 325 0
301 325 0
302 325 0
-326 0
-327 325 -328 0
327 -325 -328 0
328 -325 -327 0
327 325 328 0
-328 0
-329 325 -330 0
329 -325 -330 0
330 -325 -329 0
329 325 330 0
-330 0
-331 325 -332 0
331 -325 -332 0
332 -325 -331 0
331 325 332 0
-332 0
-333 325 -334 0
333 -325 -334 0
334 -325 -333 0
333 325 334 0
-334 0
-335 325 -336 0
335 -325 -336 0
336 -325 -335 0
335 325 336 0
-336 0
-337 325 -338 0
337 -325 -338 0
338 -325 -337 0
337 325 338 0
-338 0
339 340 0
341 340 0
342 340 0
343 340 0
344 340 0
345 340 0
346 340 0
347 340 0
-348 0
-19 340 -349 0
19 -340 -349 0
349 -340 -19 0
19 340 349 0
-349 0
341 350 0
342 350 0
343 350 0
344 350 0
345 350 0
346 350 0
347 350 0
-351 0
-352 350 -353 0
352 -350 -353 0
353 -350 -352 0
352 350 353 0
-353 0
342 354 0
343 354 0
344 354 0
345 354 0
346 354 0
347 354 0
-355 0
-356 354 -357 0
356 -354 -357 0
357 -354 -356 0
356 354 357 0
-357 0
343 358 0
344 358 0
345 358 0
346 358 0
347 358 0
-359 0
-360 358 -361 0
360 -358 -361 0
361 -358 -360 0
360 358 361 0
-361 0
344 362 0
345 362 0
346 362 0
347 362 0
-363 0
-364 362 -365 0
364 -362 -365 0
365 -362 -364 0
364 362 365 0
-365 0
-366 362 -367 0
366 -362 -367 0
367 -362 -366 0
366 362 367 0
-367 0
-368 362 -369 0
368 -362 -369 0
369 -362 -368 0
368 362 369 0
-369 0
-370 362 -371 0
370 -362 -371 0
371 -362 -370 0
370 362 371 0
-371 0
372 373 0
374 373 0
375 373 0
376 373 0
377 373 0
378 373 0
379 373 0
380 373 0
381 373 0
-382 0
-20 373 -383 0
20 -373 -383 0
383 -373 -20 0
20 373 383 0
-383 0
374 384 0
375 384 0
376 384 0
377 384 0
378 384 0
379 384 0
380 384 0
381 384 0
-385 0
-386 384 -387 0
386 -384 -387 0
387 -384 -386 0
386 384 387 0
-387 0
375 388 0
376 388 0
377 388 0
378 388 0
379 388 0
380 388 0
381 388 0
-389 0
-390 388 -391 0
390 -388 -391 0
391 -388 -390 0
390 388 391 0
-391 0
376 392 0
377 392 0
378 392 0
379 392 0
380 392 0
381 392 0
-393 0
-394 392 -395 0
394 -392 -395 0
395 -392 -394 0
394 392 395 0
-395 0
377 396 0
378 396 0
379 396 0
380 396 0
381 396 0
-397 0
-398 396 -399 0
398 -396 -399 0
399 -396 -398 0
398 396 399 0
-399 0
-400 396 -401 0
400 -396 -401 0
401 -396 -400 0
400 396 401 0
-401 0
-402 396 -403 0
402 -396 -403 0
403 -396 -402 0
402 396 403 0
-403 0
-404 396 -405 0
404 -396 -405 0
405 -396 -404 0
404 396 405 0
-405 0
-406 396 -407 0
406 -396 -407 0
407 -396 -406 0
406 396 407 0
-407 0
21 -408 0
22 -408 0
23 -408 0
24 -408 0
25 -408 0
26 -408 0
27 -408 0
28 -408 0
29 -408 0
30 -408 0
-408 -31 0
33 -408 0
34 -408 0
35 -408 0
36 -408 0
-408 -37 0
38 -408 0
39 -408 0
-408 -40 0
67 -408 0
69 -408 0
-408 -70 0
-408 -71 0
-408 -72 0
-408 -73 0
74 -408 0
-408 -75 0
-408 -76 0
77 -408 0
114 -408 0
115 -408 0
-408 -110 0
116 -408 0
117 -408 0
118 -408 0
119 -408 0
120 -408 0
121 -408 0
-408 -112 0
-408 -113 0
-408 -154 0
-408 -156 0
157 -408 0
158 -408 0
159 -408 0
-408 -160 0
161 -408 0
162 -408 0
-408 -163 0
-408 -190 0
-408 -192 0
-408 -193 0
194 -408 0
195 -408 0
196 -408 0
219 -408 0
-408 -211 0
220 -408 0
-408 -213 0
221 -408 0
-408 -214 0
222 -408 0
-408 -215 0
-408 -216 0
-408 -217 0
-408 -218 0
223 -408 0
-408 -260 0
-408 -262 0
-408 -263 0
264 -408 0
265 -408 0
266 -408 0
-408 -267 0
-408 -290 0
-408 -292 0
299 -408 0
-408 -293 0
-408 -294 0
-408 -295 0
-408 -296 0
-408 -297 0
300 -408 0
-408 -298 0
301 -408 0
302 -408 0
339 -408 0
341 -408 0
342 -408 0
-408 -343 0
-408 -344 0
-408 -345 0
346 -408 0
347 -408 0
-408 -372 0
-408 -374 0
375 -408 0
376 -408 0
377 -408 0
-408 -378 0
379 -408 0
380 -408 0
-408 -381 0
408 0
-409 0
-410 0
-411 0
-412 0
-413 0
-414 0
-415 0
-416 0
